P                                       
   1.00000000000000     
     3.3202890032400250    0.0000000000000000    0.0000000000000000
     0.0000000000000000   28.7913840336188969    0.0000000000000000
     0.0000000000000000    0.0000000000000000   53.1222331500698246
   P 
    60
Direct
  0.0000000000000000  0.3550688210775121  0.2622002942208220
  0.5000000000000000  0.3641217977136225  0.2344981633246586
  0.0000000000000000  0.4636270513330166  0.2097671398457484
  0.5000000000000000  0.4423148781724578  0.2332274918946417
  0.0000000000000000  0.5492010700144558  0.2575843058825071
  0.5000000000000000  0.5596907542532492  0.2298215241567181
  0.0000000000000000  0.6626848208211193  0.2063907545700773
  0.5000000000000000  0.6383083226377790  0.2280251873659918
  0.0000000000000000  0.3630121506137340  0.3480026610430236
  0.5000000000000000  0.3604135284626496  0.3202823196343230
  0.0000000000000000  0.4288316496455035  0.2763393333516603
  0.5000000000000000  0.4328306414422982  0.3040144347700131
  0.0000000000000000  0.5575168203763733  0.3459500795649655
  0.5000000000000000  0.5546678834637606  0.3180380873791902
  0.0000000000000000  0.6220572394881263  0.2734329801984194
  0.5000000000000000  0.6264085428516492  0.3009813812132049
  0.0000000000000000  0.3686714940314759  0.4300044764641777
  0.5000000000000000  0.3688788069065024  0.4023666595674301
  0.0000000000000000  0.4387136991793085  0.3591448715551008
  0.5000000000000000  0.4419981074614440  0.3870303320841342
  0.0000000000000000  0.5631135839915024  0.4293853318738280
  0.5000000000000000  0.5627925127801107  0.4016081535092199
  0.0000000000000000  0.6328076642784284  0.3580916276003017
  0.5000000000000000  0.6355919981367399  0.3858793227427603
  0.0000000000000000  0.3669957531304704  0.5138818197726580
  0.5000000000000000  0.3669957531304704  0.4861181802273425
  0.0000000000000000  0.4422524767715399  0.4446684553144548
  0.5000000000000000  0.4413879936145041  0.4725320579972020
  0.0000000000000000  0.5617740397712779  0.5139642265405377
  0.5000000000000000  0.5617740397712779  0.4860357734594619
  0.0000000000000000  0.6366088233286915  0.4442257696532599
  0.5000000000000000  0.6359579270118424  0.4719957442834086
  0.0000000000000000  0.3688788069065024  0.5976333404325698
  0.5000000000000000  0.3686714940314759  0.5699955235358224
  0.0000000000000000  0.4413879936145041  0.5274679420027982
  0.5000000000000000  0.4422524767715399  0.5553315446855451
  0.0000000000000000  0.5627925127801107  0.5983918464907804
  0.5000000000000000  0.5631135839915024  0.5706146681261717
  0.0000000000000000  0.6359579270118424  0.5280042557165910
  0.5000000000000000  0.6366088233286915  0.5557742303467400
  0.0000000000000000  0.3604135284626496  0.6797176803656769
  0.5000000000000000  0.3630121506137340  0.6519973389569762
  0.0000000000000000  0.4419981074614440  0.6129696679158654
  0.5000000000000000  0.4387136991793085  0.6408551284448991
  0.0000000000000000  0.5546678834637606  0.6819619126208099
  0.5000000000000000  0.5575168203763733  0.6540499204350348
  0.0000000000000000  0.6355919981367399  0.6141206772572398
  0.5000000000000000  0.6328076642784284  0.6419083723996984
  0.0000000000000000  0.3641217977136225  0.7655018366753414
  0.5000000000000000  0.3550688210775121  0.7377997057791771
  0.0000000000000000  0.4328306414422982  0.6959855652299871
  0.5000000000000000  0.4288316496455035  0.7236606666483402
  0.0000000000000000  0.5596907542532492  0.7701784758432823
  0.5000000000000000  0.5492010700144558  0.7424156941174928
  0.0000000000000000  0.6264085428516492  0.6990186187867953
  0.5000000000000000  0.6220572394881263  0.7265670198015804
  0.0000000000000000  0.4423148781724578  0.7667725081053581
  0.5000000000000000  0.4636270513330166  0.7902328601542520
  0.0000000000000000  0.6383083226377790  0.7719748126340082
  0.5000000000000000  0.6626848208211193  0.7936092454299227
 
  0.00000000E+00  0.00000000E+00  0.00000000E+00
  0.00000000E+00  0.00000000E+00  0.00000000E+00
  0.00000000E+00  0.00000000E+00  0.00000000E+00
  0.00000000E+00  0.00000000E+00  0.00000000E+00
  0.00000000E+00  0.00000000E+00  0.00000000E+00
  0.00000000E+00  0.00000000E+00  0.00000000E+00
  0.00000000E+00  0.00000000E+00  0.00000000E+00
  0.00000000E+00  0.00000000E+00  0.00000000E+00
  0.00000000E+00  0.00000000E+00  0.00000000E+00
  0.00000000E+00  0.00000000E+00  0.00000000E+00
  0.00000000E+00  0.00000000E+00  0.00000000E+00
  0.00000000E+00  0.00000000E+00  0.00000000E+00
  0.00000000E+00  0.00000000E+00  0.00000000E+00
  0.00000000E+00  0.00000000E+00  0.00000000E+00
  0.00000000E+00  0.00000000E+00  0.00000000E+00
  0.00000000E+00  0.00000000E+00  0.00000000E+00
  0.00000000E+00  0.00000000E+00  0.00000000E+00
  0.00000000E+00  0.00000000E+00  0.00000000E+00
  0.00000000E+00  0.00000000E+00  0.00000000E+00
  0.00000000E+00  0.00000000E+00  0.00000000E+00
  0.00000000E+00  0.00000000E+00  0.00000000E+00
  0.00000000E+00  0.00000000E+00  0.00000000E+00
  0.00000000E+00  0.00000000E+00  0.00000000E+00
  0.00000000E+00  0.00000000E+00  0.00000000E+00
  0.00000000E+00  0.00000000E+00  0.00000000E+00
  0.00000000E+00  0.00000000E+00  0.00000000E+00
  0.00000000E+00  0.00000000E+00  0.00000000E+00
  0.00000000E+00  0.00000000E+00  0.00000000E+00
  0.00000000E+00  0.00000000E+00  0.00000000E+00
  0.00000000E+00  0.00000000E+00  0.00000000E+00
  0.00000000E+00  0.00000000E+00  0.00000000E+00
  0.00000000E+00  0.00000000E+00  0.00000000E+00
  0.00000000E+00  0.00000000E+00  0.00000000E+00
  0.00000000E+00  0.00000000E+00  0.00000000E+00
  0.00000000E+00  0.00000000E+00  0.00000000E+00
  0.00000000E+00  0.00000000E+00  0.00000000E+00
  0.00000000E+00  0.00000000E+00  0.00000000E+00
  0.00000000E+00  0.00000000E+00  0.00000000E+00
  0.00000000E+00  0.00000000E+00  0.00000000E+00
  0.00000000E+00  0.00000000E+00  0.00000000E+00
  0.00000000E+00  0.00000000E+00  0.00000000E+00
  0.00000000E+00  0.00000000E+00  0.00000000E+00
  0.00000000E+00  0.00000000E+00  0.00000000E+00
  0.00000000E+00  0.00000000E+00  0.00000000E+00
  0.00000000E+00  0.00000000E+00  0.00000000E+00
  0.00000000E+00  0.00000000E+00  0.00000000E+00
  0.00000000E+00  0.00000000E+00  0.00000000E+00
  0.00000000E+00  0.00000000E+00  0.00000000E+00
  0.00000000E+00  0.00000000E+00  0.00000000E+00
  0.00000000E+00  0.00000000E+00  0.00000000E+00
  0.00000000E+00  0.00000000E+00  0.00000000E+00
  0.00000000E+00  0.00000000E+00  0.00000000E+00
  0.00000000E+00  0.00000000E+00  0.00000000E+00
  0.00000000E+00  0.00000000E+00  0.00000000E+00
  0.00000000E+00  0.00000000E+00  0.00000000E+00
  0.00000000E+00  0.00000000E+00  0.00000000E+00
  0.00000000E+00  0.00000000E+00  0.00000000E+00
  0.00000000E+00  0.00000000E+00  0.00000000E+00
  0.00000000E+00  0.00000000E+00  0.00000000E+00
  0.00000000E+00  0.00000000E+00  0.00000000E+00
