P                                       
   1.00000000000000     
     3.3428860000000000    0.0000000000000000    0.0000000000000000
     0.0000000000000000   27.3728635591999989    0.0000000000000000
     0.0000000000000000    0.0000000000000000   30.9370775000000009
   P 
    20
Direct
  0.0000000000000000  0.3653253149190192  0.4531823408917646
  0.5000000000000000  0.3653253149190192  0.4054070491370751
  0.0000000000000000  0.4436261676801649  0.3347017441514950
  0.5000000000000000  0.4436261676801649  0.3824770359061844
  0.5000000000000000  0.5563738323198351  0.4531823408917646
  0.0000000000000000  0.5563738323198351  0.4054070491370751
  0.5000000000000000  0.6346746850809808  0.3347017441514950
  0.0000000000000000  0.6346746850809808  0.3824770359061844
  0.0000000000000000  0.3653253149190192  0.5945929508629249
  0.5000000000000000  0.3653253149190192  0.5468176591082354
  0.0000000000000000  0.4436261676801649  0.4761123541226553
  0.5000000000000000  0.4436261676801649  0.5238876458773447
  0.5000000000000000  0.5563738323198351  0.5945929508629249
  0.0000000000000000  0.5563738323198351  0.5468176591082354
  0.5000000000000000  0.6346746850809808  0.4761123541226553
  0.0000000000000000  0.6346746850809808  0.5238876458773447
  0.0000000000000000  0.4436261676801649  0.6175229640938156
  0.5000000000000000  0.4436261676801649  0.6652982558485050
  0.5000000000000000  0.6346746850809808  0.6175229640938156
  0.0000000000000000  0.6346746850809808  0.6652982558485050
 
  0.00000000E+00  0.00000000E+00  0.00000000E+00
  0.00000000E+00  0.00000000E+00  0.00000000E+00
  0.00000000E+00  0.00000000E+00  0.00000000E+00
  0.00000000E+00  0.00000000E+00  0.00000000E+00
  0.00000000E+00  0.00000000E+00  0.00000000E+00
  0.00000000E+00  0.00000000E+00  0.00000000E+00
  0.00000000E+00  0.00000000E+00  0.00000000E+00
  0.00000000E+00  0.00000000E+00  0.00000000E+00
  0.00000000E+00  0.00000000E+00  0.00000000E+00
  0.00000000E+00  0.00000000E+00  0.00000000E+00
  0.00000000E+00  0.00000000E+00  0.00000000E+00
  0.00000000E+00  0.00000000E+00  0.00000000E+00
  0.00000000E+00  0.00000000E+00  0.00000000E+00
  0.00000000E+00  0.00000000E+00  0.00000000E+00
  0.00000000E+00  0.00000000E+00  0.00000000E+00
  0.00000000E+00  0.00000000E+00  0.00000000E+00
  0.00000000E+00  0.00000000E+00  0.00000000E+00
  0.00000000E+00  0.00000000E+00  0.00000000E+00
  0.00000000E+00  0.00000000E+00  0.00000000E+00
  0.00000000E+00  0.00000000E+00  0.00000000E+00
