Automatic mesh
0
Gamma
  8  1  1
  0.  0.  0.
