P12
1.0
3.342886 0.000000 0.000000
0.000000 32.602409 0.000000
0.000000 0.000000 4.374831
P
12
direct
0.000000 0.306726 0.918924 P
0.500000 0.306726 0.581076 P
0.000000 0.372467 0.081076 P
0.500000 0.372467 0.418924 P
0.500000 0.467129 0.418924 P
0.000000 0.467129 0.081076 P
0.500000 0.532871 0.581076 P
0.000000 0.532871 0.918924 P
0.000000 0.627533 0.918924 P
0.500000 0.627533 0.581076 P
0.000000 0.693274 0.081076 P
0.500000 0.693274 0.418924 P
