Automatic mesh
0
Gamma
  8  1  7 
  0.  0.  0.

