Automatic mesh
0
Gamma
  6  1  5 
  0.  0.  0.

