Automatic mesh
0
Gamma
  7  2  6 
  0.  0.  0.

