Automatic mesh
0
Gamma
  17  1  1
  0.  0.  0.
