Automatic mesh
0
Gamma
  7  1  5 
  0.  0.  0.

