P8                                      
   1.00000000000000     
     3.3428860000000000    0.0000000000000000    0.0000000000000000
     0.0000000000000000   27.3728639999999999    0.0000000000000000
     0.0000000000000000    0.0000000000000000    4.3748310000000004
   P 
     8
Direct
  0.0000000000000000  0.3653249999999986  0.9189239999999970
  0.5000000000000000  0.3653249999999986  0.5810760000000030
  0.0000000000000000  0.4436260000000019  0.0810760000000030
  0.5000000000000000  0.4436260000000019  0.4189239999999970
  0.0000000000000000  0.5563739999999981  0.9189239999999970
  0.5000000000000000  0.5563739999999981  0.5810760000000030
  0.0000000000000000  0.6346750000000014  0.0810760000000030
  0.5000000000000000  0.6346750000000014  0.4189239999999970
 
  0.00000000E+00  0.00000000E+00  0.00000000E+00
  0.00000000E+00  0.00000000E+00  0.00000000E+00
  0.00000000E+00  0.00000000E+00  0.00000000E+00
  0.00000000E+00  0.00000000E+00  0.00000000E+00
  0.00000000E+00  0.00000000E+00  0.00000000E+00
  0.00000000E+00  0.00000000E+00  0.00000000E+00
  0.00000000E+00  0.00000000E+00  0.00000000E+00
  0.00000000E+00  0.00000000E+00  0.00000000E+00
