Automatic mesh
0
Gamma
  6  1  6
  0.  0.  0.
