Automatic mesh
0
Gamma
  4  1  1
  0.  0.  0.
