Automatic mesh
0
Gamma
  7  1  1
  0.  0.  0.
