Automatic mesh
0
Gamma
  6  1  4
  0.  0.  0.

