Automatic mesh
0
Gamma
  4  1  4 
  0.  0.  0.

