P12                                     
   1.00000000000000     
     3.3428860000000000    0.0000000000000000    0.0000000000000000
     0.0000000000000000   32.6024090000000015    0.0000000000000000
     0.0000000000000000    0.0000000000000000    4.3748310000000004
   P 
    12
Direct
  0.0000000000000000  0.3067259999999976  0.9189239999999970
  0.5000000000000000  0.3067259999999976  0.5810760000000030
  0.0000000000000000  0.3724670000000003  0.0810760000000030
  0.5000000000000000  0.3724670000000003  0.4189239999999970
  0.5000000000000000  0.4671289999999999  0.9189239999999970
  0.0000000000000000  0.4671289999999999  0.5810760000000030
  0.5000000000000000  0.5328710000000001  0.0810760000000030
  0.0000000000000000  0.5328710000000001  0.4189239999999970
  0.0000000000000000  0.6275329999999997  0.9189239999999970
  0.5000000000000000  0.6275329999999997  0.5810760000000030
  0.0000000000000000  0.6932740000000024  0.0810760000000030
  0.5000000000000000  0.6932740000000024  0.4189239999999970
 
  0.00000000E+00  0.00000000E+00  0.00000000E+00
  0.00000000E+00  0.00000000E+00  0.00000000E+00
  0.00000000E+00  0.00000000E+00  0.00000000E+00
  0.00000000E+00  0.00000000E+00  0.00000000E+00
  0.00000000E+00  0.00000000E+00  0.00000000E+00
  0.00000000E+00  0.00000000E+00  0.00000000E+00
  0.00000000E+00  0.00000000E+00  0.00000000E+00
  0.00000000E+00  0.00000000E+00  0.00000000E+00
  0.00000000E+00  0.00000000E+00  0.00000000E+00
  0.00000000E+00  0.00000000E+00  0.00000000E+00
  0.00000000E+00  0.00000000E+00  0.00000000E+00
  0.00000000E+00  0.00000000E+00  0.00000000E+00
