Automatic mesh
0
Gamma
  5  1  4 
  0.  0.  0.

