Automatic mesh
0
Gamma
  3  1  1
  0.  0.  0.
