P1
1.0
		3.3428860000         0.0000000000         0.0000000000
		0.0000000000         32.6024085592         0.0000000000
		0.0000000000         0.0000000000         4.3748310000
	P
	12
Cartesian
	0.0000000000         10.0000000000         4.0201372018
	1.6714430000         10.0000000000         2.5421092982
	0.0000000000         12.1433185592         0.3546937982
	1.6714430000         12.1433185592         1.8327217018
	0.0000000000         15.2295450000         1.8327217018
	1.6714430000         15.2295450000         0.3546937982
	0.0000000000         17.3728635592         2.5421092982
	1.6714430000         17.3728635592         4.0201372018
	0.0000000000         20.4590900000         4.0201372018
	1.6714430000         20.4590900000         2.5421092982
	0.0000000000         22.6024085592         0.3546937982
	1.6714430000         22.6024085592         1.8327217018
