Automatic mesh
0
Gamma
  6  1  1
  0.  0.  0.
