Automatic mesh
0
Gamma
  4  5  6
  0.  0.  0.
