Automatic mesh
0
Gamma
  1  2  3
  0.  0.  0.
