P8
1.0
3.342886 0.000000 0.000000
0.000000 10 0.000000
0.000000 0.000000 4.374831
P
8
direct
0.000000 0.000001 0.918924 P
0.500000 0.000001 0.581076 P
0.000000 0.214333 0.081076 P
0.500000 0.214333 0.418924 P
0.000000 0.522956 0.918924 P
0.500000 0.522956 0.581076 P
0.000000 0.732881 0.081076 P
0.500000 0.732881 0.418924 P
