Automatic mesh
0
Gamma
  7  1  6 
  0.  0.  0.

