Automatic mesh
0
Gamma
  8  1  6
  0.  0.  0.

